5 5
6 1 1 13 3 5 14 3 14 2 15 5 3 15 2 16 4 10 5 9 1 6 1 3 15 1 5 7 3 4 12 5 8 1 8
6 5 2 4 3 9 1 17 4 5 5 9 3 4 12 1 17 3 10 3 3 6 5 3 4 20 1 5 3 5 4 8 3 7 5 12 2 15 1 9 1 4 3
5 4 5 12 3 11 4 20 2 17 1 1 19 1 4 20 3 1 9 3 8 2 4 2 3 19 2 19
6 1 3 20 2 4 11 3 15 5 5 18 3 3 2 8 4 4 1 19 1 2 17 5 4 6 2 18 5 18 1 5 3 5 1 1 12
4 1 2 11 5 2 12 5 20 1 18 3 7 4 20 3 5 17 3 2 1 8 3 4 2 1 15 5 19